nK = 1633;
nT = 6;
nI = 14;
L = 29;
TT = 336;
np = 1;
nc = 3;
b = [36, 27, 66, 30, 51, 22, 49, 21, 52, 45, 49, 53, 35, 38];
d = [143, 95, 132, 68, 116, 95, 131, 87, 119, 102, 128, 86, 115, 74];
m = [2, 2.5, 1.2, 2.5, 2, 2.4, 1.7, 2.5, 2.1, 2.1, 2.4, 1.1, 2.2, 1];
pt = [0.34, 0.2, 0.35, 0.29, 0.2, 0.26];
st = [17.34, 9.4, 14.7, 15.37, 10.8, 10.92];
arc = {<1, 0, 1, 1, 0, 0, 0, [1, 1, 1, 1, 1, 1]>, <2, 1, 2, 1, 0, 0, 0, [1, 1, 1, 1, 1, 1]>, <3, 2, 3, 1, 0, 0, 0, [1, 1, 1, 1, 1, 1]>, <4, 3, 4, 1, 0, 0, 0, [1, 1, 1, 1, 1, 1]>, <5, 4, 5, 1, 0, 0, 0, [1, 1, 1, 1, 1, 1]>, <6, 5, 6, 1, 0, 0, 0, [1, 1, 1, 1, 1, 1]>, <7, 6, 7, 1, 0, 0, 0, [1, 1, 1, 1, 1, 1]>, <8, 7, 8, 1, 0, 0, 0, [1, 1, 1, 1, 1, 1]>, <9, 8, 9, 1, 0, 0, 0, [1, 1, 1, 1, 1, 1]>, <10, 9, 10, 1, 0, 0, 0, [1, 1, 1, 1, 1, 1]>, <11, 10, 11, 1, 0, 0, 0, [1, 1, 1, 1, 1, 1]>, <12, 11, 12, 1, 0, 0, 0, [1, 1, 1, 1, 1, 1]>, <13, 12, 13, 1, 0, 0, 0, [1, 1, 1, 1, 1, 1]>, <14, 13, 14, 1, 0, 0, 0, [1, 1, 1, 1, 1, 1]>, <15, 14, 15, 1, 0, 0, 0, [1, 1, 1, 1, 1, 1]>, <16, 15, 16, 1, 0, 0, 0, [1, 1, 1, 1, 1, 1]>, <17, 16, 17, 1, 0, 0, 0, [1, 1, 1, 1, 1, 1]>, <18, 17, 18, 1, 0, 0, 0, [1, 1, 1, 1, 1, 1]>, <19, 18, 19, 1, 0, 0, 0, [1, 1, 1, 1, 1, 1]>, <20, 19, 20, 1, 0, 0, 0, [1, 1, 1, 1, 1, 1]>, <21, 20, 21, 1, 0, 0, 0, [1, 1, 1, 1, 1, 1]>, <22, 21, 22, 1, 0, 0, 0, [1, 1, 1, 1, 1, 1]>, <23, 22, 23, 1, 0, 0, 0, [1, 1, 1, 1, 1, 1]>, <24, 23, 24, 1, 0, 0, 0, [1, 1, 1, 1, 1, 1]>, <25, 24, 25, 1, 0, 0, 0, [1, 1, 1, 1, 1, 1]>, <26, 25, 26, 1, 0, 0, 0, [1, 1, 1, 1, 1, 1]>, <27, 26, 27, 1, 0, 0, 0, [1, 1, 1, 1, 1, 1]>, <28, 27, 28, 1, 0, 0, 0, [1, 1, 1, 1, 1, 1]>, <29, 28, 29, 1, 0, 0, 0, [1, 1, 1, 1, 1, 1]>, <30, 0, 13, 13, 1, 1, 0, [0, 0, 1, 1, 0, 0]>, <31, 1, 14, 13, 1, 1, 0, [0, 0, 1, 1, 0, 0]>, <32, 2, 15, 13, 1, 1, 0, [0, 0, 1, 1, 0, 0]>, <33, 3, 16, 13, 1, 1, 0, [0, 0, 1, 1, 0, 0]>, <34, 4, 17, 13, 1, 1, 0, [0, 0, 1, 1, 0, 0]>, <35, 5, 18, 13, 1, 1, 0, [0, 0, 1, 1, 0, 0]>, <36, 7, 20, 13, 1, 1, 0, [0, 0, 1, 1, 0, 0]>, <37, 8, 21, 13, 1, 1, 0, [0, 0, 1, 1, 0, 0]>, <38, 9, 22, 13, 1, 1, 0, [0, 0, 1, 1, 0, 0]>, <39, 10, 23, 13, 1, 1, 0, [0, 0, 1, 1, 0, 0]>, <40, 11, 24, 13, 1, 1, 0, [0, 0, 1, 1, 0, 0]>, <41, 12, 25, 13, 1, 1, 0, [0, 0, 1, 1, 0, 0]>, <42, 13, 26, 13, 1, 1, 0, [0, 0, 1, 1, 0, 0]>, <43, 14, 27, 13, 1, 1, 0, [0, 0, 1, 1, 0, 0]>, <44, 15, 28, 13, 1, 1, 0, [0, 0, 1, 1, 0, 0]>, <45, 16, 29, 13, 1, 1, 0, [0, 0, 1, 1, 0, 0]>, <46, 0, 12, 12, 2, 0, 1, [1, 0, 0, 0, 0, 1]>, <47, 1, 13, 12, 2, 0, 1, [1, 0, 0, 0, 0, 1]>, <48, 2, 14, 12, 2, 0, 1, [1, 0, 0, 0, 0, 1]>, <49, 3, 15, 12, 2, 0, 1, [1, 0, 0, 0, 0, 1]>, <50, 4, 16, 12, 2, 0, 1, [1, 0, 0, 0, 0, 1]>, <51, 5, 17, 12, 2, 0, 1, [1, 0, 0, 0, 0, 1]>, <52, 8, 20, 12, 2, 0, 1, [1, 0, 0, 0, 0, 1]>, <53, 9, 21, 12, 2, 0, 1, [1, 0, 0, 0, 0, 1]>, <54, 10, 22, 12, 2, 0, 1, [1, 0, 0, 0, 0, 1]>, <55, 11, 23, 12, 2, 0, 1, [1, 0, 0, 0, 0, 1]>, <56, 12, 24, 12, 2, 0, 1, [1, 0, 0, 0, 0, 1]>, <57, 13, 25, 12, 2, 0, 1, [1, 0, 0, 0, 0, 1]>, <58, 14, 26, 12, 2, 0, 1, [1, 0, 0, 0, 0, 1]>, <59, 15, 27, 12, 2, 0, 1, [1, 0, 0, 0, 0, 1]>, <60, 16, 28, 12, 2, 0, 1, [1, 0, 0, 0, 0, 1]>, <61, 17, 29, 12, 2, 0, 1, [1, 0, 0, 0, 0, 1]>, <62, 1, 12, 11, 3, 0, 0, [1, 0, 0, 0, 0, 1]>, <63, 2, 13, 11, 3, 0, 0, [1, 0, 0, 0, 0, 1]>, <64, 3, 14, 11, 3, 0, 0, [1, 0, 0, 0, 0, 1]>, <65, 4, 15, 11, 3, 0, 0, [1, 0, 0, 0, 0, 1]>, <66, 5, 16, 11, 3, 0, 0, [1, 0, 0, 0, 0, 1]>, <67, 9, 20, 11, 3, 0, 0, [1, 0, 0, 0, 0, 1]>, <68, 10, 21, 11, 3, 0, 0, [1, 0, 0, 0, 0, 1]>, <69, 11, 22, 11, 3, 0, 0, [1, 0, 0, 0, 0, 1]>, <70, 12, 23, 11, 3, 0, 0, [1, 0, 0, 0, 0, 1]>, <71, 13, 24, 11, 3, 0, 0, [1, 0, 0, 0, 0, 1]>, <72, 14, 25, 11, 3, 0, 0, [1, 0, 0, 0, 0, 1]>, <73, 15, 26, 11, 3, 0, 0, [1, 0, 0, 0, 0, 1]>, <74, 16, 27, 11, 3, 0, 0, [1, 0, 0, 0, 0, 1]>, <75, 17, 28, 11, 3, 0, 0, [1, 0, 0, 0, 0, 1]>, <76, 18, 29, 11, 3, 0, 0, [1, 0, 0, 0, 0, 1]>, <77, 1, 12, 11, 4, 0, 1, [0, 0, 0, 0, 1, 1]>, <78, 2, 13, 11, 4, 0, 1, [0, 0, 0, 0, 1, 1]>, <79, 3, 14, 11, 4, 0, 1, [0, 0, 0, 0, 1, 1]>, <80, 4, 15, 11, 4, 0, 1, [0, 0, 0, 0, 1, 1]>, <81, 5, 16, 11, 4, 0, 1, [0, 0, 0, 0, 1, 1]>, <82, 9, 20, 11, 4, 0, 1, [0, 0, 0, 0, 1, 1]>, <83, 10, 21, 11, 4, 0, 1, [0, 0, 0, 0, 1, 1]>, <84, 11, 22, 11, 4, 0, 1, [0, 0, 0, 0, 1, 1]>, <85, 12, 23, 11, 4, 0, 1, [0, 0, 0, 0, 1, 1]>, <86, 13, 24, 11, 4, 0, 1, [0, 0, 0, 0, 1, 1]>, <87, 14, 25, 11, 4, 0, 1, [0, 0, 0, 0, 1, 1]>, <88, 15, 26, 11, 4, 0, 1, [0, 0, 0, 0, 1, 1]>, <89, 16, 27, 11, 4, 0, 1, [0, 0, 0, 0, 1, 1]>, <90, 17, 28, 11, 4, 0, 1, [0, 0, 0, 0, 1, 1]>, <91, 18, 29, 11, 4, 0, 1, [0, 0, 0, 0, 1, 1]>, <92, 0, 14, 14, 5, 0, 1, [1, 0, 0, 0, 0, 1]>, <93, 1, 15, 14, 5, 0, 1, [1, 0, 0, 0, 0, 1]>, <94, 2, 16, 14, 5, 0, 1, [1, 0, 0, 0, 0, 1]>, <95, 3, 17, 14, 5, 0, 1, [1, 0, 0, 0, 0, 1]>, <96, 4, 18, 14, 5, 0, 1, [1, 0, 0, 0, 0, 1]>, <97, 5, 19, 14, 5, 0, 1, [1, 0, 0, 0, 0, 1]>, <98, 6, 20, 14, 5, 0, 1, [1, 0, 0, 0, 0, 1]>, <99, 7, 21, 14, 5, 0, 1, [1, 0, 0, 0, 0, 1]>, <100, 8, 22, 14, 5, 0, 1, [1, 0, 0, 0, 0, 1]>, <101, 9, 23, 14, 5, 0, 1, [1, 0, 0, 0, 0, 1]>, <102, 10, 24, 14, 5, 0, 1, [1, 0, 0, 0, 0, 1]>, <103, 11, 25, 14, 5, 0, 1, [1, 0, 0, 0, 0, 1]>, <104, 12, 26, 14, 5, 0, 1, [1, 0, 0, 0, 0, 1]>, <105, 13, 27, 14, 5, 0, 1, [1, 0, 0, 0, 0, 1]>, <106, 14, 28, 14, 5, 0, 1, [1, 0, 0, 0, 0, 1]>, <107, 15, 29, 14, 5, 0, 1, [1, 0, 0, 0, 0, 1]>, <108, 0, 14, 14, 6, 0, 1, [0, 0, 0, 1, 1, 0]>, <109, 1, 15, 14, 6, 0, 1, [0, 0, 0, 1, 1, 0]>, <110, 2, 16, 14, 6, 0, 1, [0, 0, 0, 1, 1, 0]>, <111, 3, 17, 14, 6, 0, 1, [0, 0, 0, 1, 1, 0]>, <112, 4, 18, 14, 6, 0, 1, [0, 0, 0, 1, 1, 0]>, <113, 5, 19, 14, 6, 0, 1, [0, 0, 0, 1, 1, 0]>, <114, 6, 20, 14, 6, 0, 1, [0, 0, 0, 1, 1, 0]>, <115, 7, 21, 14, 6, 0, 1, [0, 0, 0, 1, 1, 0]>, <116, 8, 22, 14, 6, 0, 1, [0, 0, 0, 1, 1, 0]>, <117, 9, 23, 14, 6, 0, 1, [0, 0, 0, 1, 1, 0]>, <118, 10, 24, 14, 6, 0, 1, [0, 0, 0, 1, 1, 0]>, <119, 11, 25, 14, 6, 0, 1, [0, 0, 0, 1, 1, 0]>, <120, 12, 26, 14, 6, 0, 1, [0, 0, 0, 1, 1, 0]>, <121, 13, 27, 14, 6, 0, 1, [0, 0, 0, 1, 1, 0]>, <122, 14, 28, 14, 6, 0, 1, [0, 0, 0, 1, 1, 0]>, <123, 15, 29, 14, 6, 0, 1, [0, 0, 0, 1, 1, 0]>, <124, 0, 15, 15, 7, 0, 0, [0, 0, 1, 1, 0, 0]>, <125, 1, 16, 15, 7, 0, 0, [0, 0, 1, 1, 0, 0]>, <126, 2, 17, 15, 7, 0, 0, [0, 0, 1, 1, 0, 0]>, <127, 3, 18, 15, 7, 0, 0, [0, 0, 1, 1, 0, 0]>, <128, 4, 19, 15, 7, 0, 0, [0, 0, 1, 1, 0, 0]>, <129, 5, 20, 15, 7, 0, 0, [0, 0, 1, 1, 0, 0]>, <130, 6, 21, 15, 7, 0, 0, [0, 0, 1, 1, 0, 0]>, <131, 7, 22, 15, 7, 0, 0, [0, 0, 1, 1, 0, 0]>, <132, 8, 23, 15, 7, 0, 0, [0, 0, 1, 1, 0, 0]>, <133, 9, 24, 15, 7, 0, 0, [0, 0, 1, 1, 0, 0]>, <134, 10, 25, 15, 7, 0, 0, [0, 0, 1, 1, 0, 0]>, <135, 11, 26, 15, 7, 0, 0, [0, 0, 1, 1, 0, 0]>, <136, 12, 27, 15, 7, 0, 0, [0, 0, 1, 1, 0, 0]>, <137, 13, 28, 15, 7, 0, 0, [0, 0, 1, 1, 0, 0]>, <138, 14, 29, 15, 7, 0, 0, [0, 0, 1, 1, 0, 0]>, <139, 0, 13, 13, 8, 0, 1, [1, 0, 0, 0, 0, 1]>, <140, 1, 14, 13, 8, 0, 1, [1, 0, 0, 0, 0, 1]>, <141, 2, 15, 13, 8, 0, 1, [1, 0, 0, 0, 0, 1]>, <142, 3, 16, 13, 8, 0, 1, [1, 0, 0, 0, 0, 1]>, <143, 4, 17, 13, 8, 0, 1, [1, 0, 0, 0, 0, 1]>, <144, 5, 18, 13, 8, 0, 1, [1, 0, 0, 0, 0, 1]>, <145, 7, 20, 13, 8, 0, 1, [1, 0, 0, 0, 0, 1]>, <146, 8, 21, 13, 8, 0, 1, [1, 0, 0, 0, 0, 1]>, <147, 9, 22, 13, 8, 0, 1, [1, 0, 0, 0, 0, 1]>, <148, 10, 23, 13, 8, 0, 1, [1, 0, 0, 0, 0, 1]>, <149, 11, 24, 13, 8, 0, 1, [1, 0, 0, 0, 0, 1]>, <150, 12, 25, 13, 8, 0, 1, [1, 0, 0, 0, 0, 1]>, <151, 13, 26, 13, 8, 0, 1, [1, 0, 0, 0, 0, 1]>, <152, 14, 27, 13, 8, 0, 1, [1, 0, 0, 0, 0, 1]>, <153, 15, 28, 13, 8, 0, 1, [1, 0, 0, 0, 0, 1]>, <154, 16, 29, 13, 8, 0, 1, [1, 0, 0, 0, 0, 1]>, <155, 1, 12, 11, 9, 0, 1, [0, 0, 0, 1, 1, 0]>, <156, 2, 13, 11, 9, 0, 1, [0, 0, 0, 1, 1, 0]>, <157, 3, 14, 11, 9, 0, 1, [0, 0, 0, 1, 1, 0]>, <158, 4, 15, 11, 9, 0, 1, [0, 0, 0, 1, 1, 0]>, <159, 5, 16, 11, 9, 0, 1, [0, 0, 0, 1, 1, 0]>, <160, 9, 20, 11, 9, 0, 1, [0, 0, 0, 1, 1, 0]>, <161, 10, 21, 11, 9, 0, 1, [0, 0, 0, 1, 1, 0]>, <162, 11, 22, 11, 9, 0, 1, [0, 0, 0, 1, 1, 0]>, <163, 12, 23, 11, 9, 0, 1, [0, 0, 0, 1, 1, 0]>, <164, 13, 24, 11, 9, 0, 1, [0, 0, 0, 1, 1, 0]>, <165, 14, 25, 11, 9, 0, 1, [0, 0, 0, 1, 1, 0]>, <166, 15, 26, 11, 9, 0, 1, [0, 0, 0, 1, 1, 0]>, <167, 16, 27, 11, 9, 0, 1, [0, 0, 0, 1, 1, 0]>, <168, 17, 28, 11, 9, 0, 1, [0, 0, 0, 1, 1, 0]>, <169, 18, 29, 11, 9, 0, 1, [0, 0, 0, 1, 1, 0]>, <170, 0, 13, 13, 10, 0, 0, [0, 0, 1, 1, 0, 0]>, <171, 1, 14, 13, 10, 0, 0, [0, 0, 1, 1, 0, 0]>, <172, 2, 15, 13, 10, 0, 0, [0, 0, 1, 1, 0, 0]>, <173, 3, 16, 13, 10, 0, 0, [0, 0, 1, 1, 0, 0]>, <174, 4, 17, 13, 10, 0, 0, [0, 0, 1, 1, 0, 0]>, <175, 5, 18, 13, 10, 0, 0, [0, 0, 1, 1, 0, 0]>, <176, 7, 20, 13, 10, 0, 0, [0, 0, 1, 1, 0, 0]>, <177, 8, 21, 13, 10, 0, 0, [0, 0, 1, 1, 0, 0]>, <178, 9, 22, 13, 10, 0, 0, [0, 0, 1, 1, 0, 0]>, <179, 10, 23, 13, 10, 0, 0, [0, 0, 1, 1, 0, 0]>, <180, 11, 24, 13, 10, 0, 0, [0, 0, 1, 1, 0, 0]>, <181, 12, 25, 13, 10, 0, 0, [0, 0, 1, 1, 0, 0]>, <182, 13, 26, 13, 10, 0, 0, [0, 0, 1, 1, 0, 0]>, <183, 14, 27, 13, 10, 0, 0, [0, 0, 1, 1, 0, 0]>, <184, 15, 28, 13, 10, 0, 0, [0, 0, 1, 1, 0, 0]>, <185, 16, 29, 13, 10, 0, 0, [0, 0, 1, 1, 0, 0]>, <186, 0, 13, 13, 11, 0, 1, [0, 0, 0, 0, 1, 1]>, <187, 1, 14, 13, 11, 0, 1, [0, 0, 0, 0, 1, 1]>, <188, 2, 15, 13, 11, 0, 1, [0, 0, 0, 0, 1, 1]>, <189, 3, 16, 13, 11, 0, 1, [0, 0, 0, 0, 1, 1]>, <190, 4, 17, 13, 11, 0, 1, [0, 0, 0, 0, 1, 1]>, <191, 5, 18, 13, 11, 0, 1, [0, 0, 0, 0, 1, 1]>, <192, 7, 20, 13, 11, 0, 1, [0, 0, 0, 0, 1, 1]>, <193, 8, 21, 13, 11, 0, 1, [0, 0, 0, 0, 1, 1]>, <194, 9, 22, 13, 11, 0, 1, [0, 0, 0, 0, 1, 1]>, <195, 10, 23, 13, 11, 0, 1, [0, 0, 0, 0, 1, 1]>, <196, 11, 24, 13, 11, 0, 1, [0, 0, 0, 0, 1, 1]>, <197, 12, 25, 13, 11, 0, 1, [0, 0, 0, 0, 1, 1]>, <198, 13, 26, 13, 11, 0, 1, [0, 0, 0, 0, 1, 1]>, <199, 14, 27, 13, 11, 0, 1, [0, 0, 0, 0, 1, 1]>, <200, 15, 28, 13, 11, 0, 1, [0, 0, 0, 0, 1, 1]>, <201, 16, 29, 13, 11, 0, 1, [0, 0, 0, 0, 1, 1]>, <202, 0, 12, 12, 12, 0, 1, [0, 0, 0, 1, 1, 0]>, <203, 1, 13, 12, 12, 0, 1, [0, 0, 0, 1, 1, 0]>, <204, 2, 14, 12, 12, 0, 1, [0, 0, 0, 1, 1, 0]>, <205, 3, 15, 12, 12, 0, 1, [0, 0, 0, 1, 1, 0]>, <206, 4, 16, 12, 12, 0, 1, [0, 0, 0, 1, 1, 0]>, <207, 5, 17, 12, 12, 0, 1, [0, 0, 0, 1, 1, 0]>, <208, 8, 20, 12, 12, 0, 1, [0, 0, 0, 1, 1, 0]>, <209, 9, 21, 12, 12, 0, 1, [0, 0, 0, 1, 1, 0]>, <210, 10, 22, 12, 12, 0, 1, [0, 0, 0, 1, 1, 0]>, <211, 11, 23, 12, 12, 0, 1, [0, 0, 0, 1, 1, 0]>, <212, 12, 24, 12, 12, 0, 1, [0, 0, 0, 1, 1, 0]>, <213, 13, 25, 12, 12, 0, 1, [0, 0, 0, 1, 1, 0]>, <214, 14, 26, 12, 12, 0, 1, [0, 0, 0, 1, 1, 0]>, <215, 15, 27, 12, 12, 0, 1, [0, 0, 0, 1, 1, 0]>, <216, 16, 28, 12, 12, 0, 1, [0, 0, 0, 1, 1, 0]>, <217, 17, 29, 12, 12, 0, 1, [0, 0, 0, 1, 1, 0]>, <218, 0, 12, 12, 13, 0, 0, [1, 0, 0, 0, 0, 1]>, <219, 1, 13, 12, 13, 0, 0, [1, 0, 0, 0, 0, 1]>, <220, 2, 14, 12, 13, 0, 0, [1, 0, 0, 0, 0, 1]>, <221, 3, 15, 12, 13, 0, 0, [1, 0, 0, 0, 0, 1]>, <222, 4, 16, 12, 13, 0, 0, [1, 0, 0, 0, 0, 1]>, <223, 5, 17, 12, 13, 0, 0, [1, 0, 0, 0, 0, 1]>, <224, 8, 20, 12, 13, 0, 0, [1, 0, 0, 0, 0, 1]>, <225, 9, 21, 12, 13, 0, 0, [1, 0, 0, 0, 0, 1]>, <226, 10, 22, 12, 13, 0, 0, [1, 0, 0, 0, 0, 1]>, <227, 11, 23, 12, 13, 0, 0, [1, 0, 0, 0, 0, 1]>, <228, 12, 24, 12, 13, 0, 0, [1, 0, 0, 0, 0, 1]>, <229, 13, 25, 12, 13, 0, 0, [1, 0, 0, 0, 0, 1]>, <230, 14, 26, 12, 13, 0, 0, [1, 0, 0, 0, 0, 1]>, <231, 15, 27, 12, 13, 0, 0, [1, 0, 0, 0, 0, 1]>, <232, 16, 28, 12, 13, 0, 0, [1, 0, 0, 0, 0, 1]>, <233, 17, 29, 12, 13, 0, 0, [1, 0, 0, 0, 0, 1]>, <234, 0, 14, 14, 14, 0, 1, [0, 0, 0, 1, 1, 0]>, <235, 1, 15, 14, 14, 0, 1, [0, 0, 0, 1, 1, 0]>, <236, 2, 16, 14, 14, 0, 1, [0, 0, 0, 1, 1, 0]>, <237, 3, 17, 14, 14, 0, 1, [0, 0, 0, 1, 1, 0]>, <238, 4, 18, 14, 14, 0, 1, [0, 0, 0, 1, 1, 0]>, <239, 5, 19, 14, 14, 0, 1, [0, 0, 0, 1, 1, 0]>, <240, 6, 20, 14, 14, 0, 1, [0, 0, 0, 1, 1, 0]>, <241, 7, 21, 14, 14, 0, 1, [0, 0, 0, 1, 1, 0]>, <242, 8, 22, 14, 14, 0, 1, [0, 0, 0, 1, 1, 0]>, <243, 9, 23, 14, 14, 0, 1, [0, 0, 0, 1, 1, 0]>, <244, 10, 24, 14, 14, 0, 1, [0, 0, 0, 1, 1, 0]>, <245, 11, 25, 14, 14, 0, 1, [0, 0, 0, 1, 1, 0]>, <246, 12, 26, 14, 14, 0, 1, [0, 0, 0, 1, 1, 0]>, <247, 13, 27, 14, 14, 0, 1, [0, 0, 0, 1, 1, 0]>, <248, 14, 28, 14, 14, 0, 1, [0, 0, 0, 1, 1, 0]>, <249, 15, 29, 14, 14, 0, 1, [0, 0, 0, 1, 1, 0]>};
